benchmarks/VRPTW/TSPTW/solution/n60w40.002.txt.solution
1 31 11 32 22 48 20 16 42 17 56 19 43 13 36 4 3 45 18 37 59 7 33 10 40 38 26 30 35 47 57 5 46 8 14 9 21 24 29 52 28 39 54 15 44 51 60 58 25 50 23 41 49 34 55 2 27 53 12 61 6 
621
